\ENCODING=ISO-8859-1
\Problem name: ilog.cplex

Minimize
 obj1: 97403 x1 + 99133 x2 + 91660 x3 + 99334 x4 + 107101 x5 + 103780 x6
       + 102691 x7 + 107501 x8 + 104352 x9 + 104925 x10 + 95598 x11
       + 100265 x12 + 109677 x13 + 98961 x14 + 106033 x15 + 95009 x16
       + 101996 x17 + 98191 x18 + 99948 x19 + 96936 x20 + 95103 x21
       + 108062 x22 + 109385 x23 + 103366 x24 + 102452 x25 + 106831 x26
       + 107277 x27 + 95111 x28 + 90324 x29 + 90532 x30 + 96266 x31 + 90612 x32
       + 105733 x33 + 94371 x34 + 108134 x35 + 94600 x36 + 107315 x37
       + 90619 x38 + 97666 x39 + 99807 x40 + 104975 x41 + 92627 x42
       + 107560 x43 + 97602 x44 + 107191 x45 + 104758 x46 + 99494 x47
       + 101416 x48 + 103669 x49 + 108832 x50 + 109105 x51 + 103655 x52
       + 90378 x53 + 104357 x54 + 109848 x55 + 96925 x56 + 107606 x57
       + 90130 x58 + 92299 x59 + 95967 x60 + 104213 x61 + 93255 x62 + 91000 x63
       + 102004 x64 + 91696 x65 + 90396 x66 + 103529 x67 + 99121 x68
       + 93480 x69 + 90242 x70 + 102135 x71 + 102647 x72 + 108471 x73
       + 96547 x74 + 90976 x75 + 93879 x76 + 100917 x77 + 98675 x78
       + 108479 x79 + 95503 x80 + 90471 x81 + 99366 x82 + 90726 x83 + 96721 x84
       + 90590 x85 + 94489 x86 + 108867 x87 + 97485 x88 + 108239 x89
       + 100181 x90 + 91208 x91 + 107141 x92 + 93391 x93 + 99018 x94
       + 98921 x95 + 104407 x96 + 92918 x97 + 108799 x98 + 103266 x99
       + 102799 x100 + 108448 x101 + 99057 x102 + 91205 x103 + 90906 x104
       + 105724 x105 + 98977 x106 + 90275 x107 + 93839 x108 + 100146 x109
       + 106442 x110 + 104023 x111 + 102830 x112 + 107779 x113 + 97374 x114
       + 98426 x115 + 98421 x116 + 105637 x117 + 104800 x118 + 97655 x119
       + 109818 x120 + 108588 x121 + 96725 x122 + 91165 x123 + 104384 x124
       + 94818 x125 + 90185 x126 + 95071 x127 + 98030 x128 + 104126 x129
       + 109224 x130 + 101561 x131 + 92819 x132 + 101166 x133 + 106888 x134
       + 98196 x135 + 93331 x136 + 109183 x137 + 94327 x138 + 102787 x139
       + 99070 x140 + 98897 x141 + 93695 x142 + 98852 x143 + 96684 x144
       + 101890 x145 + 95803 x146 + 91755 x147 + 102768 x148 + 108166 x149
       + 98312 x150 + 105754 x151 + 92107 x152 + 103447 x153 + 104030 x154
       + 108804 x155 + 107656 x156 + 102548 x157 + 91827 x158 + 106918 x159
       + 106017 x160 + 94312 x161 + 109856 x162 + 95858 x163 + 105179 x164
       + 92865 x165 + 90892 x166 + 109600 x167 + 109262 x168 + 91739 x169
       + 100894 x170 + 104708 x171 + 93980 x172 + 106496 x173 + 106095 x174
       + 104551 x175 + 108994 x176 + 103093 x177 + 108704 x178 + 100544 x179
       + 95501 x180 + 94386 x181 + 96989 x182 + 98120 x183 + 108702 x184
       + 100426 x185 + 102149 x186 + 96244 x187 + 101689 x188 + 102155 x189
       + 106536 x190 + 101012 x191 + 109776 x192 + 92657 x193 + 105658 x194
       + 96245 x195 + 92487 x196 + 105281 x197 + 109834 x198 + 106981 x199
       + 104158 x200 + 93502 x201 + 95998 x202 + 90526 x203 + 102782 x204
       + 97523 x205 + 109720 x206 + 99462 x207 + 96535 x208 + 95802 x209
       + 106976 x210 + 98121 x211 + 95712 x212 + 107432 x213 + 91361 x214
       + 91579 x215 + 95903 x216 + 104803 x217 + 101878 x218 + 104411 x219
       + 90067 x220 + 105929 x221 + 106385 x222 + 96042 x223 + 109727 x224
       + 90181 x225 + 107847 x226 + 102197 x227 + 108851 x228 + 101022 x229
       + 107451 x230 + 92568 x231 + 101304 x232 + 93785 x233 + 90030 x234
       + 94519 x235 + 102050 x236 + 96504 x237 + 99314 x238 + 97976 x239
       + 92113 x240 + 97487 x241 + 93192 x242 + 107610 x243 + 107810 x244
       + 94573 x245 + 92464 x246 + 105011 x247 + 105879 x248 + 97924 x249
       + 69576 x250 + 183540 x251 + 208677 x252 + 192772 x253 + 199261 x254
       + 217723 x255 + 214715 x256 + 190149 x257 + 207017 x258 + 192559 x259
       + 198652 x260 + 194216 x261 + 218286 x262 + 197993 x263 + 183342 x264
       + 181193 x265 + 191860 x266 + 185199 x267 + 197459 x268 + 210731 x269
       + 197355 x270 + 198583 x271 + 205449 x272 + 213368 x273 + 198072 x274
       + 204953 x275 + 194003 x276 + 205846 x277 + 214334 x278 + 191607 x279
       + 210159 x280 + 206050 x281 + 182271 x282 + 206110 x283 + 219299 x284
       + 207236 x285 + 208036 x286 + 195217 x287 + 198206 x288 + 182773 x289
       + 196274 x290 + 188906 x291 + 219048 x292 + 188008 x293 + 204144 x294
       + 207685 x295 + 214522 x296 + 204942 x297 + 218550 x298 + 207341 x299
       + 146309 x300
Subject To
 c1:   - x2 + x11 - x24 - x33 - x35 + x38 - x39 + x41 + x44 + x47 + x48 - x50
        = 0
 c2:   - x52 + x61 - x74 - x83 - x85 + x88 - x89 + x91 + x94 + x97 + x98 - x100
        = 0
 c3:   - x102 + x111 - x124 - x133 - x135 + x138 - x139 + x141 + x144 + x147
       + x148 - x150  = -1
 c4:   - x152 + x161 - x174 - x183 - x185 + x188 - x189 + x191 + x194 + x197
       + x198 - x200  = 0
 c5:   - x202 + x211 - x224 - x233 - x235 + x238 - x239 + x241 + x244 + x247
       + x248 - x250  = 0
 c6:   - x3 + x10 - x12 - x25 + x27 + x39 - x47  = 0
 c7:   - x53 + x60 - x62 - x75 + x77 + x89 - x97  = 0
 c8:   - x103 + x110 - x112 - x125 + x127 + x139 - x147  = 0
 c9:   - x153 + x160 - x162 - x175 + x177 + x189 - x197  = 0
 c10:  - x203 + x210 - x212 - x225 + x227 + x239 - x247  = 0
 c11:  x1 - x5 + x13 - x15 - x17 + x24 + x26 - x27 - x32 + x40 + x42  = 0
 c12:  x51 - x55 + x63 - x65 - x67 + x74 + x76 - x77 - x82 + x90 + x92  = -1
 c13:  x101 - x105 + x113 - x115 - x117 + x124 + x126 - x127 - x132 + x140
       + x142  = 0
 c14:  x151 - x155 + x163 - x165 - x167 + x174 + x176 - x177 - x182 + x190
       + x192  = 1
 c15:  x201 - x205 + x213 - x215 - x217 + x224 + x226 - x227 - x232 + x240
       + x242  = -1
 c16:  x3 - x8 + x15 - x21 - x28 - x34 + x36 - x38 - x42  = 0
 c17:  x53 - x58 + x65 - x71 - x78 - x84 + x86 - x88 - x92  = 0
 c18:  x103 - x108 + x115 - x121 - x128 - x134 + x136 - x138 - x142  = 0
 c19:  x153 - x158 + x165 - x171 - x178 - x184 + x186 - x188 - x192  = 0
 c20:  x203 - x208 + x215 - x221 - x228 - x234 + x236 - x238 - x242  = 0
 c21:  x5 - x9 - x11 + x12 - x13 - x14 - x19 - x20 + x28 + x29 + x35 - x45
       + x49  = -1
 c22:  x55 - x59 - x61 + x62 - x63 - x64 - x69 - x70 + x78 + x79 + x85 - x95
       + x99  = 0
 c23:  x105 - x109 - x111 + x112 - x113 - x114 - x119 - x120 + x128 + x129
       + x135 - x145 + x149  = 0
 c24:  x155 - x159 - x161 + x162 - x163 - x164 - x169 - x170 + x178 + x179
       + x185 - x195 + x199  = 0
 c25:  x205 - x209 - x211 + x212 - x213 - x214 - x219 - x220 + x228 + x229
       + x235 - x245 + x249  = 0
 c26:  x9 - x16 + x17 + x18 - x22 - x30 + x50  = 1
 c27:  x59 - x66 + x67 + x68 - x72 - x80 + x100  = 0
 c28:  x109 - x116 + x117 + x118 - x122 - x130 + x150  = 0
 c29:  x159 - x166 + x167 + x168 - x172 - x180 + x200  = 0
 c30:  x209 - x216 + x217 + x218 - x222 - x230 + x250  = 1
 c31:  - x6 + x7 + x16 - x23 + x33 - x36 - x44 + x45  = 0
 c32:  - x56 + x57 + x66 - x73 + x83 - x86 - x94 + x95  = 0
 c33:  - x106 + x107 + x116 - x123 + x133 - x136 - x144 + x145  = 0
 c34:  - x156 + x157 + x166 - x173 + x183 - x186 - x194 + x195  = -1
 c35:  - x206 + x207 + x216 - x223 + x233 - x236 - x244 + x245  = 0
 c36:  x2 + x6 - x7 - x18 + x19 + x22 + x25 - x29 + x31 + x34 - x37 - x40 - x41
       - x43 + x46  = 0
 c37:  x52 + x56 - x57 - x68 + x69 + x72 + x75 - x79 + x81 + x84 - x87 - x90
       - x91 - x93 + x96  = 1
 c38:  x102 + x106 - x107 - x118 + x119 + x122 + x125 - x129 + x131 + x134
       - x137 - x140 - x141 - x143 + x146  = 1
 c39:  x152 + x156 - x157 - x168 + x169 + x172 + x175 - x179 + x181 + x184
       - x187 - x190 - x191 - x193 + x196  = 0
 c40:  x202 + x206 - x207 - x218 + x219 + x222 + x225 - x229 + x231 + x234
       - x237 - x240 - x241 - x243 + x246  = 0
 c41:  x4 + x8 - x10 + x20 - x26 + x32 + x37 - x46 - x48  = 0
 c42:  x54 + x58 - x60 + x70 - x76 + x82 + x87 - x96 - x98  = 0
 c43:  x104 + x108 - x110 + x120 - x126 + x132 + x137 - x146 - x148  = 0
 c44:  x154 + x158 - x160 + x170 - x176 + x182 + x187 - x196 - x198  = 0
 c45:  x204 + x208 - x210 + x220 - x226 + x232 + x237 - x246 - x248  = 0
 c46:  - x1 - x4 + x14 + x21 + x23 + x30 - x31 + x43 - x49  = 0
 c47:  - x51 - x54 + x64 + x71 + x73 + x80 - x81 + x93 - x99  = 0
 c48:  - x101 - x104 + x114 + x121 + x123 + x130 - x131 + x143 - x149  = 0
 c49:  - x151 - x154 + x164 + x171 + x173 + x180 - x181 + x193 - x199  = 0
 c50:  - x201 - x204 + x214 + x221 + x223 + x230 - x231 + x243 - x249  = 0
 c51:  4 x1 + 4 x51 + 4 x101 + 4 x151 + 4 x201 - 2 x251 <= 0
 c52:  4 x2 + 4 x52 + 4 x102 + 4 x152 + 4 x202 - 2 x252 <= 0
 c53:  4 x3 + 4 x53 + 4 x103 + 4 x153 + 4 x203 - 2 x253 <= 0
 c54:  4 x4 + 4 x54 + 4 x104 + 4 x154 + 4 x204 - 2 x254 <= 0
 c55:  4 x5 + 4 x55 + 4 x105 + 4 x155 + 4 x205 - 2 x255 <= 0
 c56:  4 x6 + 4 x56 + 4 x106 + 4 x156 + 4 x206 - 2 x256 <= 0
 c57:  4 x7 + 4 x57 + 4 x107 + 4 x157 + 4 x207 - 2 x257 <= 0
 c58:  4 x8 + 4 x58 + 4 x108 + 4 x158 + 4 x208 - 2 x258 <= 0
 c59:  4 x9 + 4 x59 + 4 x109 + 4 x159 + 4 x209 - 2 x259 <= 0
 c60:  4 x10 + 4 x60 + 4 x110 + 4 x160 + 4 x210 - 2 x260 <= 0
 c61:  4 x11 + 4 x61 + 4 x111 + 4 x161 + 4 x211 - 2 x261 <= 0
 c62:  4 x12 + 4 x62 + 4 x112 + 4 x162 + 4 x212 - 2 x262 <= 0
 c63:  4 x13 + 4 x63 + 4 x113 + 4 x163 + 4 x213 - 2 x263 <= 0
 c64:  4 x14 + 4 x64 + 4 x114 + 4 x164 + 4 x214 - 2 x264 <= 0
 c65:  4 x15 + 4 x65 + 4 x115 + 4 x165 + 4 x215 - 2 x265 <= 0
 c66:  4 x16 + 4 x66 + 4 x116 + 4 x166 + 4 x216 - 2 x266 <= 0
 c67:  4 x17 + 4 x67 + 4 x117 + 4 x167 + 4 x217 - 2 x267 <= 0
 c68:  4 x18 + 4 x68 + 4 x118 + 4 x168 + 4 x218 - 2 x268 <= 0
 c69:  4 x19 + 4 x69 + 4 x119 + 4 x169 + 4 x219 - 2 x269 <= 0
 c70:  4 x20 + 4 x70 + 4 x120 + 4 x170 + 4 x220 - 2 x270 <= 0
 c71:  4 x21 + 4 x71 + 4 x121 + 4 x171 + 4 x221 - 2 x271 <= 0
 c72:  4 x22 + 4 x72 + 4 x122 + 4 x172 + 4 x222 - 2 x272 <= 0
 c73:  4 x23 + 4 x73 + 4 x123 + 4 x173 + 4 x223 - 2 x273 <= 0
 c74:  4 x24 + 4 x74 + 4 x124 + 4 x174 + 4 x224 - 2 x274 <= 0
 c75:  4 x25 + 4 x75 + 4 x125 + 4 x175 + 4 x225 - 2 x275 <= 0
 c76:  4 x26 + 4 x76 + 4 x126 + 4 x176 + 4 x226 - 2 x276 <= 0
 c77:  4 x27 + 4 x77 + 4 x127 + 4 x177 + 4 x227 - 2 x277 <= 0
 c78:  4 x28 + 4 x78 + 4 x128 + 4 x178 + 4 x228 - 2 x278 <= 0
 c79:  4 x29 + 4 x79 + 4 x129 + 4 x179 + 4 x229 - 2 x279 <= 0
 c80:  4 x30 + 4 x80 + 4 x130 + 4 x180 + 4 x230 - 2 x280 <= 0
 c81:  4 x31 + 4 x81 + 4 x131 + 4 x181 + 4 x231 - 2 x281 <= 0
 c82:  4 x32 + 4 x82 + 4 x132 + 4 x182 + 4 x232 - 2 x282 <= 0
 c83:  4 x33 + 4 x83 + 4 x133 + 4 x183 + 4 x233 - 2 x283 <= 0
 c84:  4 x34 + 4 x84 + 4 x134 + 4 x184 + 4 x234 - 2 x284 <= 0
 c85:  4 x35 + 4 x85 + 4 x135 + 4 x185 + 4 x235 - 2 x285 <= 0
 c86:  4 x36 + 4 x86 + 4 x136 + 4 x186 + 4 x236 - 2 x286 <= 0
 c87:  4 x37 + 4 x87 + 4 x137 + 4 x187 + 4 x237 - 2 x287 <= 0
 c88:  4 x38 + 4 x88 + 4 x138 + 4 x188 + 4 x238 - 2 x288 <= 0
 c89:  4 x39 + 4 x89 + 4 x139 + 4 x189 + 4 x239 - 2 x289 <= 0
 c90:  4 x40 + 4 x90 + 4 x140 + 4 x190 + 4 x240 - 2 x290 <= 0
 c91:  4 x41 + 4 x91 + 4 x141 + 4 x191 + 4 x241 - 2 x291 <= 0
 c92:  4 x42 + 4 x92 + 4 x142 + 4 x192 + 4 x242 - 2 x292 <= 0
 c93:  4 x43 + 4 x93 + 4 x143 + 4 x193 + 4 x243 - 2 x293 <= 0
 c94:  4 x44 + 4 x94 + 4 x144 + 4 x194 + 4 x244 - 2 x294 <= 0
 c95:  4 x45 + 4 x95 + 4 x145 + 4 x195 + 4 x245 - 2 x295 <= 0
 c96:  4 x46 + 4 x96 + 4 x146 + 4 x196 + 4 x246 - 2 x296 <= 0
 c97:  4 x47 + 4 x97 + 4 x147 + 4 x197 + 4 x247 - 2 x297 <= 0
 c98:  4 x48 + 4 x98 + 4 x148 + 4 x198 + 4 x248 - 2 x298 <= 0
 c99:  4 x49 + 4 x99 + 4 x149 + 4 x199 + 4 x249 - 2 x299 <= 0
 c100: 4 x50 + 4 x100 + 4 x150 + 4 x200 + 4 x250 - 2 x300 <= 0
Bounds
 0 <= x1 <= 1
 0 <= x2 <= 1
 0 <= x3 <= 1
 0 <= x4 <= 1
 0 <= x5 <= 1
 0 <= x6 <= 1
 0 <= x7 <= 1
 0 <= x8 <= 1
 0 <= x9 <= 1
 0 <= x10 <= 1
 0 <= x11 <= 1
 0 <= x12 <= 1
 0 <= x13 <= 1
 0 <= x14 <= 1
 0 <= x15 <= 1
 0 <= x16 <= 1
 0 <= x17 <= 1
 0 <= x18 <= 1
 0 <= x19 <= 1
 0 <= x20 <= 1
 0 <= x21 <= 1
 0 <= x22 <= 1
 0 <= x23 <= 1
 0 <= x24 <= 1
 0 <= x25 <= 1
 0 <= x26 <= 1
 0 <= x27 <= 1
 0 <= x28 <= 1
 0 <= x29 <= 1
 0 <= x30 <= 1
 0 <= x31 <= 1
 0 <= x32 <= 1
 0 <= x33 <= 1
 0 <= x34 <= 1
 0 <= x35 <= 1
 0 <= x36 <= 1
 0 <= x37 <= 1
 0 <= x38 <= 1
 0 <= x39 <= 1
 0 <= x40 <= 1
 0 <= x41 <= 1
 0 <= x42 <= 1
 0 <= x43 <= 1
 0 <= x44 <= 1
 0 <= x45 <= 1
 0 <= x46 <= 1
 0 <= x47 <= 1
 0 <= x48 <= 1
 0 <= x49 <= 1
 0 <= x50 <= 1
 0 <= x51 <= 1
 0 <= x52 <= 1
 0 <= x53 <= 1
 0 <= x54 <= 1
 0 <= x55 <= 1
 0 <= x56 <= 1
 0 <= x57 <= 1
 0 <= x58 <= 1
 0 <= x59 <= 1
 0 <= x60 <= 1
 0 <= x61 <= 1
 0 <= x62 <= 1
 0 <= x63 <= 1
 0 <= x64 <= 1
 0 <= x65 <= 1
 0 <= x66 <= 1
 0 <= x67 <= 1
 0 <= x68 <= 1
 0 <= x69 <= 1
 0 <= x70 <= 1
 0 <= x71 <= 1
 0 <= x72 <= 1
 0 <= x73 <= 1
 0 <= x74 <= 1
 0 <= x75 <= 1
 0 <= x76 <= 1
 0 <= x77 <= 1
 0 <= x78 <= 1
 0 <= x79 <= 1
 0 <= x80 <= 1
 0 <= x81 <= 1
 0 <= x82 <= 1
 0 <= x83 <= 1
 0 <= x84 <= 1
 0 <= x85 <= 1
 0 <= x86 <= 1
 0 <= x87 <= 1
 0 <= x88 <= 1
 0 <= x89 <= 1
 0 <= x90 <= 1
 0 <= x91 <= 1
 0 <= x92 <= 1
 0 <= x93 <= 1
 0 <= x94 <= 1
 0 <= x95 <= 1
 0 <= x96 <= 1
 0 <= x97 <= 1
 0 <= x98 <= 1
 0 <= x99 <= 1
 0 <= x100 <= 1
 0 <= x101 <= 1
 0 <= x102 <= 1
 0 <= x103 <= 1
 0 <= x104 <= 1
 0 <= x105 <= 1
 0 <= x106 <= 1
 0 <= x107 <= 1
 0 <= x108 <= 1
 0 <= x109 <= 1
 0 <= x110 <= 1
 0 <= x111 <= 1
 0 <= x112 <= 1
 0 <= x113 <= 1
 0 <= x114 <= 1
 0 <= x115 <= 1
 0 <= x116 <= 1
 0 <= x117 <= 1
 0 <= x118 <= 1
 0 <= x119 <= 1
 0 <= x120 <= 1
 0 <= x121 <= 1
 0 <= x122 <= 1
 0 <= x123 <= 1
 0 <= x124 <= 1
 0 <= x125 <= 1
 0 <= x126 <= 1
 0 <= x127 <= 1
 0 <= x128 <= 1
 0 <= x129 <= 1
 0 <= x130 <= 1
 0 <= x131 <= 1
 0 <= x132 <= 1
 0 <= x133 <= 1
 0 <= x134 <= 1
 0 <= x135 <= 1
 0 <= x136 <= 1
 0 <= x137 <= 1
 0 <= x138 <= 1
 0 <= x139 <= 1
 0 <= x140 <= 1
 0 <= x141 <= 1
 0 <= x142 <= 1
 0 <= x143 <= 1
 0 <= x144 <= 1
 0 <= x145 <= 1
 0 <= x146 <= 1
 0 <= x147 <= 1
 0 <= x148 <= 1
 0 <= x149 <= 1
 0 <= x150 <= 1
 0 <= x151 <= 1
 0 <= x152 <= 1
 0 <= x153 <= 1
 0 <= x154 <= 1
 0 <= x155 <= 1
 0 <= x156 <= 1
 0 <= x157 <= 1
 0 <= x158 <= 1
 0 <= x159 <= 1
 0 <= x160 <= 1
 0 <= x161 <= 1
 0 <= x162 <= 1
 0 <= x163 <= 1
 0 <= x164 <= 1
 0 <= x165 <= 1
 0 <= x166 <= 1
 0 <= x167 <= 1
 0 <= x168 <= 1
 0 <= x169 <= 1
 0 <= x170 <= 1
 0 <= x171 <= 1
 0 <= x172 <= 1
 0 <= x173 <= 1
 0 <= x174 <= 1
 0 <= x175 <= 1
 0 <= x176 <= 1
 0 <= x177 <= 1
 0 <= x178 <= 1
 0 <= x179 <= 1
 0 <= x180 <= 1
 0 <= x181 <= 1
 0 <= x182 <= 1
 0 <= x183 <= 1
 0 <= x184 <= 1
 0 <= x185 <= 1
 0 <= x186 <= 1
 0 <= x187 <= 1
 0 <= x188 <= 1
 0 <= x189 <= 1
 0 <= x190 <= 1
 0 <= x191 <= 1
 0 <= x192 <= 1
 0 <= x193 <= 1
 0 <= x194 <= 1
 0 <= x195 <= 1
 0 <= x196 <= 1
 0 <= x197 <= 1
 0 <= x198 <= 1
 0 <= x199 <= 1
 0 <= x200 <= 1
 0 <= x201 <= 1
 0 <= x202 <= 1
 0 <= x203 <= 1
 0 <= x204 <= 1
 0 <= x205 <= 1
 0 <= x206 <= 1
 0 <= x207 <= 1
 0 <= x208 <= 1
 0 <= x209 <= 1
 0 <= x210 <= 1
 0 <= x211 <= 1
 0 <= x212 <= 1
 0 <= x213 <= 1
 0 <= x214 <= 1
 0 <= x215 <= 1
 0 <= x216 <= 1
 0 <= x217 <= 1
 0 <= x218 <= 1
 0 <= x219 <= 1
 0 <= x220 <= 1
 0 <= x221 <= 1
 0 <= x222 <= 1
 0 <= x223 <= 1
 0 <= x224 <= 1
 0 <= x225 <= 1
 0 <= x226 <= 1
 0 <= x227 <= 1
 0 <= x228 <= 1
 0 <= x229 <= 1
 0 <= x230 <= 1
 0 <= x231 <= 1
 0 <= x232 <= 1
 0 <= x233 <= 1
 0 <= x234 <= 1
 0 <= x235 <= 1
 0 <= x236 <= 1
 0 <= x237 <= 1
 0 <= x238 <= 1
 0 <= x239 <= 1
 0 <= x240 <= 1
 0 <= x241 <= 1
 0 <= x242 <= 1
 0 <= x243 <= 1
 0 <= x244 <= 1
 0 <= x245 <= 1
 0 <= x246 <= 1
 0 <= x247 <= 1
 0 <= x248 <= 1
 0 <= x249 <= 1
 0 <= x250 <= 1
 0 <= x251 <= 1
 0 <= x252 <= 1
 0 <= x253 <= 1
 0 <= x254 <= 1
 0 <= x255 <= 1
 0 <= x256 <= 1
 0 <= x257 <= 1
 0 <= x258 <= 1
 0 <= x259 <= 1
 0 <= x260 <= 1
 0 <= x261 <= 1
 0 <= x262 <= 1
 0 <= x263 <= 1
 0 <= x264 <= 1
 0 <= x265 <= 1
 0 <= x266 <= 1
 0 <= x267 <= 1
 0 <= x268 <= 1
 0 <= x269 <= 1
 0 <= x270 <= 1
 0 <= x271 <= 1
 0 <= x272 <= 1
 0 <= x273 <= 1
 0 <= x274 <= 1
 0 <= x275 <= 1
 0 <= x276 <= 1
 0 <= x277 <= 1
 0 <= x278 <= 1
 0 <= x279 <= 1
 0 <= x280 <= 1
 0 <= x281 <= 1
 0 <= x282 <= 1
 0 <= x283 <= 1
 0 <= x284 <= 1
 0 <= x285 <= 1
 0 <= x286 <= 1
 0 <= x287 <= 1
 0 <= x288 <= 1
 0 <= x289 <= 1
 0 <= x290 <= 1
 0 <= x291 <= 1
 0 <= x292 <= 1
 0 <= x293 <= 1
 0 <= x294 <= 1
 0 <= x295 <= 1
 0 <= x296 <= 1
 0 <= x297 <= 1
 0 <= x298 <= 1
 0 <= x299 <= 1
 0 <= x300 <= 1
Binaries
 x251  x252  x253  x254  x255  x256  x257  x258  x259  x260  x261  x262  x263 
 x264  x265  x266  x267  x268  x269  x270  x271  x272  x273  x274  x275  x276 
 x277  x278  x279  x280  x281  x282  x283  x284  x285  x286  x287  x288  x289 
 x290  x291  x292  x293  x294  x295  x296  x297  x298  x299  x300 
End
